p cnf 163 371
c x0 -> 102
c x1 -> 103
c x2 -> 79
c x3 -> 77
c x4 -> 78
c x5 -> 38
c x6 -> 39
2 3 -1 0
-2 -3 -1 0
2 -3 1 0
-2 3 1 0
4 2 0
-4 -2 0
5 3 0
-5 -3 0
6 -4 0
7 -4 0
-6 -7 4 0
8 5 0
9 5 0
-8 -9 -5 0
10 6 0
-10 -6 0
11 -7 0
12 -7 0
-11 -12 7 0
13 8 0
-13 -8 0
14 9 0
15 9 0
-14 -15 -9 0
16 -10 0
17 -10 0
-16 -17 10 0
18 11 0
-18 -11 0
19 12 0
-19 -12 0
20 -13 0
21 -13 0
-20 -21 13 0
22 14 0
-22 -14 0
23 15 0
-23 -15 0
24 16 0
-24 -16 0
25 17 0
-25 -17 0
24 -18 0
26 -18 0
-24 -26 18 0
27 -19 0
28 -19 0
-27 -28 19 0
29 20 0
-29 -20 0
30 21 0
-30 -21 0
29 -22 0
31 -22 0
-29 -31 22 0
32 23 0
33 23 0
-32 -33 -23 0
34 -24 0
35 -24 0
-34 -35 24 0
36 -25 0
37 -25 0
-36 -37 25 0
28 26 0
-28 -26 0
38 -27 0
39 -27 0
-38 -39 27 0
40 -28 0
41 -28 0
-40 -41 28 0
42 -29 0
43 -29 0
-42 -43 29 0
44 -30 0
45 -30 0
-44 -45 30 0
33 31 0
-33 -31 0
38 -32 0
39 -32 0
-38 -39 32 0
48 -33 0
49 -33 0
-48 -49 33 0
38 34 0
-38 -34 0
39 35 0
-39 -35 0
50 36 0
-50 -36 0
51 37 0
-51 -37 0
52 40 0
-52 -40 0
53 -41 0
54 -41 0
-53 -54 41 0
38 42 0
-38 -42 0
39 43 0
-39 -43 0
55 44 0
-55 -44 0
56 45 0
-56 -45 0
57 48 0
-57 -48 0
58 49 0
59 49 0
-58 -59 -49 0
60 -50 0
61 -50 0
-60 -61 50 0
62 -51 0
63 -51 0
-62 -63 51 0
64 -52 0
65 -52 0
-64 -65 52 0
66 53 0
-66 -53 0
67 54 0
-67 -54 0
68 -55 0
69 -55 0
-68 -69 55 0
70 -56 0
71 -56 0
-70 -71 56 0
72 -57 0
73 -57 0
-72 -73 57 0
74 58 0
-74 -58 0
75 59 0
-75 -59 0
27 60 0
-27 -60 0
76 61 0
-76 -61 0
77 -62 0
78 -62 0
-77 -78 62 0
79 -63 0
80 -63 0
-79 -80 63 0
81 -64 0
82 -64 0
-81 -82 64 0
83 -65 0
84 -65 0
-83 -84 65 0
62 -66 0
85 -66 0
-62 -85 66 0
86 -67 0
87 -67 0
-86 -87 67 0
32 68 0
-32 -68 0
88 69 0
-88 -69 0
77 -70 0
78 -70 0
-77 -78 70 0
79 -71 0
92 -71 0
-79 -92 71 0
93 -72 0
94 -72 0
-93 -94 72 0
95 -73 0
96 -73 0
-95 -96 73 0
70 -74 0
97 -74 0
-70 -97 74 0
98 -75 0
99 -75 0
-98 -99 75 0
100 -76 0
101 -76 0
-100 -101 76 0
102 -80 0
103 -80 0
-102 -103 80 0
77 81 0
-77 -81 0
78 82 0
-78 -82 0
104 83 0
-104 -83 0
105 84 0
-105 -84 0
65 85 0
-65 -85 0
63 86 0
-63 -86 0
106 -87 0
107 -87 0
-106 -107 87 0
108 -88 0
109 -88 0
-108 -109 88 0
102 -92 0
103 -92 0
-102 -103 92 0
77 93 0
-77 -93 0
78 94 0
-78 -94 0
112 95 0
-112 -95 0
113 96 0
-113 -96 0
73 97 0
-73 -97 0
71 98 0
-71 -98 0
114 -99 0
115 -99 0
-114 -115 99 0
116 100 0
-116 -100 0
117 101 0
-117 -101 0
118 -104 0
119 -104 0
-118 -119 104 0
120 -105 0
121 -105 0
-120 -121 105 0
122 -106 0
123 -106 0
-122 -123 106 0
124 107 0
-124 -107 0
125 108 0
-125 -108 0
126 109 0
-126 -109 0
127 -112 0
128 -112 0
-127 -128 112 0
129 -113 0
130 -113 0
-129 -130 113 0
131 -114 0
132 -114 0
-131 -132 114 0
133 115 0
-133 -115 0
121 -116 0
134 -116 0
-121 -134 116 0
135 -117 0
136 -117 0
-135 -136 117 0
102 118 0
-102 -118 0
103 119 0
-103 -119 0
79 120 0
-79 -120 0
80 121 0
-80 -121 0
64 122 0
-64 -122 0
62 123 0
-62 -123 0
120 -124 0
104 -124 0
-120 -104 124 0
130 -125 0
137 -125 0
-130 -137 125 0
138 -126 0
139 -126 0
-138 -139 126 0
102 127 0
-102 -127 0
103 128 0
-103 -128 0
79 129 0
-79 -129 0
92 130 0
-92 -130 0
72 131 0
-72 -131 0
70 132 0
-70 -132 0
129 -133 0
112 -133 0
-129 -112 133 0
140 134 0
-140 -134 0
141 135 0
-141 -135 0
142 136 0
-142 -136 0
143 137 0
-143 -137 0
144 138 0
-144 -138 0
145 139 0
-145 -139 0
146 -140 0
147 -140 0
-146 -147 140 0
79 -141 0
148 -141 0
-79 -148 141 0
149 -142 0
150 -142 0
-149 -150 142 0
151 -143 0
152 -143 0
-151 -152 143 0
79 -144 0
153 -144 0
-79 -153 144 0
154 -145 0
155 -145 0
-154 -155 145 0
156 146 0
-156 -146 0
157 147 0
-157 -147 0
106 148 0
-106 -148 0
158 149 0
-158 -149 0
159 150 0
-159 -150 0
160 151 0
-160 -151 0
161 152 0
-161 -152 0
114 153 0
-114 -153 0
162 154 0
-162 -154 0
163 155 0
-163 -155 0
79 -156 0
64 -156 0
-79 -64 156 0
120 -157 0
106 -157 0
-120 -106 157 0
64 -158 0
83 -158 0
-64 -83 158 0
122 -159 0
104 -159 0
-122 -104 159 0
79 -160 0
72 -160 0
-79 -72 160 0
129 -161 0
114 -161 0
-129 -114 161 0
72 -162 0
95 -162 0
-72 -95 162 0
131 -163 0
112 -163 0
-131 -112 163 0
1 0
